c   #vars: 45   #clauses: 186   #literals: 542
c 
p cnf 45 186
-1 -2 0
-3 -4 0
7 8 40 41 0
-5 -6 0
-7 -8 0
-10 -11 0
-12 -13 0
-14 -15 0
-16 -17 0
-5 10 11 38 0
25 32 33 -34 0
-20 -21 0
-22 -23 0
-1 12 13 19 0
1 2 28 -38 0
-26 -27 0
29 36 37 -40 0
1 2 -29 39 0
-30 -31 0
-32 -33 0
-1 7 8 19 0
-34 -35 0
-36 -37 0
-10 14 15 24 0
9 -18 26 27 0
14 15 34 35 0
10 11 -28 38 0
14 15 20 21 0
-40 -41 0
1 2 26 27 0
-42 -43 0
14 15 44 45 0
-44 -45 0
-7 12 13 19 0
25 -30 32 33 0
-2 -19 0
-1 -26 0
-2 -27 0
5 6 44 45 0
-1 -28 0
29 36 37 -39 0
10 11 36 37 0
-1 -32 0
-2 -33 0
12 13 34 35 0
-1 -39 0
9 -17 26 27 0
-1 -40 0
-2 -41 0
1 2 32 33 0
-3 -16 0
-4 -17 0
9 -17 18 -34 0
5 6 -28 38 0
-4 -18 0
29 -39 40 41 0
-3 -20 0
-4 -21 0
22 23 34 35 0
-3 -34 0
-4 -35 0
-10 24 44 45 0
3 4 18 -34 0
3 4 -9 18 0
-10 28 -37 38 0
-5 -20 0
-6 -21 0
-27 29 39 -40 0
-6 -38 0
3 4 20 21 0
-5 -42 0
-6 -43 0
9 18 -27 -34 0
-5 -44 0
-6 -45 0
25 30 31 -34 0
-8 -19 0
-14 24 44 45 0
-7 -22 0
-8 -23 0
7 8 42 43 0
-7 -40 0
-8 -41 0
25 -32 34 35 0
-7 -42 0
-8 -43 0
-9 -16 0
25 -30 34 35 0
5 6 -10 38 0
-9 -26 0
20 21 30 31 0
-9 18 34 35 0
10 11 24 -44 0
1 2 -12 19 0
-11 -24 0
3 4 16 17 0
-10 -26 0
-11 -27 0
-3 18 34 35 0
-10 -36 0
-11 -37 0
20 21 36 37 0
-11 -38 0
-12 -16 0
-13 -17 0
12 13 16 17 0
25 30 31 -32 0
-13 -19 0
26 27 32 33 0
-12 -22 0
-13 -23 0
-5 28 -37 38 0
-12 -30 0
-13 -31 0
-27 29 -36 39 0
-12 -32 0
-13 -33 0
20 21 42 43 0
-12 -34 0
-13 -35 0
22 23 30 31 0
-14 -20 0
-15 -21 0
1 2 -7 19 0
-15 -24 0
7 8 22 23 0
-14 -34 0
-15 -35 0
16 17 44 45 0
-14 -40 0
-15 -41 0
14 15 40 41 0
-14 -44 0
-15 -45 0
-16 -44 0
-17 -45 0
29 -36 40 41 0
-18 -35 0
-2 -5 28 38 0
-20 -30 0
-21 -31 0
-20 -36 0
-21 -37 0
1 2 40 41 0
-20 -42 0
-21 -43 0
5 6 20 21 0
-22 -30 0
-23 -31 0
10 11 26 27 0
-22 -34 0
-23 -35 0
-22 -42 0
-23 -43 0
5 6 42 43 0
12 13 22 23 0
10 11 -14 24 0
-2 -10 28 38 0
7 8 -12 19 0
-24 -45 0
-2 29 -36 39 0
1 2 28 -37 0
-25 -31 0
28 36 37 -38 0
-25 -33 0
12 13 32 33 0
-2 28 36 37 0
-25 -35 0
-26 -32 0
-27 -33 0
3 4 34 35 0
-26 -39 0
9 16 17 -27 0
-28 -36 0
-3 9 -17 18 0
14 15 24 -44 0
-3 9 18 -27 0
-2 29 39 -40 0
1 2 -27 39 0
-29 -37 0
22 23 42 43 0
26 27 -29 39 0
9 16 17 -18 0
12 13 30 31 0
-2 26 27 39 0
-29 -41 0
